246 5
10 10 10 10 10 

0 0 0 0 0 0 4 2 14 26 38 
0 0 0 0 0 0 4 3 5 7 12 
7 0 0 0 1 0 3 11 6 4 
2 0 0 0 3 0 2 9 8 
9 0 0 0 7 0 2 10 9 
4 0 0 0 7 0 1 8 
1 0 0 0 6 0 1 8 
5 0 0 0 6 0 1 13 
1 0 0 0 7 0 1 13 
2 0 0 0 4 0 1 13 
5 0 0 0 5 0 1 13 
2 0 0 0 4 0 1 13 
0 0 0 0 0 0 1 50 
0 0 0 0 0 0 5 15 16 17 18 20 
3 0 1 0 0 0 4 24 23 22 21 
5 0 4 0 0 0 4 24 23 22 21 
3 0 9 0 0 0 2 21 19 
2 0 6 0 0 0 3 23 22 21 
4 0 1 0 0 0 2 23 22 
4 0 7 0 0 0 1 21 
3 0 5 0 0 0 1 25 
7 0 5 0 0 0 1 25 
10 0 7 0 0 0 1 25 
10 0 5 0 0 0 1 25 
0 0 0 0 0 0 1 50 
0 0 0 0 0 0 5 27 28 30 35 36 
4 0 1 0 0 0 2 34 29 
4 0 7 0 0 0 2 33 31 
10 0 5 0 0 0 1 31 
4 0 7 0 0 0 1 32 
3 0 7 0 0 0 1 37 
10 0 5 0 0 0 1 37 
7 0 2 0 0 0 1 37 
2 0 6 0 0 0 1 37 
3 0 4 0 0 0 1 37 
8 0 6 0 0 0 1 37 
0 0 0 0 0 0 1 50 
0 0 0 0 0 0 5 39 40 42 47 48 
7 2 0 0 0 0 4 46 45 43 41 
2 3 0 0 0 0 3 45 44 43 
9 7 0 0 0 0 1 44 
7 5 0 0 0 0 1 43 
5 8 0 0 0 0 1 49 
2 10 0 0 0 0 1 49 
6 3 0 0 0 0 1 49 
7 3 0 0 0 0 1 49 
3 2 0 0 0 0 1 49 
6 7 0 0 0 0 1 49 
0 0 0 0 0 0 1 50 
0 0 0 0 0 0 4 51 63 75 87 
0 0 0 0 0 0 4 52 54 55 61 
5 0 0 0 0 1 2 60 53 
5 0 0 0 0 6 3 59 57 56 
5 0 0 0 0 5 3 58 57 56 
4 0 0 0 0 9 3 58 57 56 
9 0 0 0 0 5 1 62 
3 0 0 0 0 4 1 62 
2 0 0 0 0 6 1 62 
8 0 0 0 0 3 1 62 
2 0 0 0 0 4 1 62 
3 0 0 0 0 7 1 62 
0 0 0 0 0 0 1 99 
0 0 0 0 0 0 5 64 65 67 72 73 
2 0 0 0 0 1 3 71 70 68 
2 0 0 0 0 9 2 68 66 
8 0 0 0 0 4 1 69 
10 0 0 0 0 6 1 68 
2 0 0 0 0 4 1 74 
9 0 0 0 0 3 1 74 
4 0 0 0 0 7 1 74 
1 0 0 0 0 2 1 74 
6 0 0 0 0 6 1 74 
8 0 0 0 0 8 1 74 
0 0 0 0 0 0 1 99 
0 0 0 0 0 0 4 76 77 78 80 
4 1 0 0 0 0 3 84 83 79 
9 7 0 0 0 0 3 85 84 81 
9 9 0 0 0 0 3 83 82 81 
3 7 0 0 0 0 2 82 81 
8 3 0 0 0 0 1 81 
3 5 0 0 0 0 1 86 
3 6 0 0 0 0 1 86 
4 3 0 0 0 0 1 86 
2 5 0 0 0 0 1 86 
2 4 0 0 0 0 1 86 
0 0 0 0 0 0 1 99 
0 0 0 0 0 0 7 88 89 91 92 95 96 97 
10 0 1 0 0 0 1 90 
3 0 5 0 0 0 1 90 
7 0 6 0 0 0 2 94 93 
4 0 7 0 0 0 2 94 93 
4 0 2 0 0 0 1 93 
2 0 7 0 0 0 1 98 
5 0 10 0 0 0 1 98 
10 0 4 0 0 0 1 98 
10 0 4 0 0 0 1 98 
4 0 4 0 0 0 1 98 
0 0 0 0 0 0 1 99 
0 0 0 0 0 0 4 100 112 124 136 
0 0 0 0 0 0 6 101 104 105 106 107 110 
1 2 0 0 0 0 2 103 102 
10 5 0 0 0 0 2 109 108 
9 7 0 0 0 0 2 109 108 
2 2 0 0 0 0 2 109 108 
6 10 0 0 0 0 1 108 
5 2 0 0 0 0 1 108 
5 8 0 0 0 0 1 108 
5 4 0 0 0 0 1 111 
7 5 0 0 0 0 1 111 
7 5 0 0 0 0 1 111 
0 0 0 0 0 0 1 148 
0 0 0 0 0 0 7 113 114 115 117 120 121 122 
8 0 1 0 0 0 2 119 118 
7 0 8 0 0 0 1 116 
2 0 5 0 0 0 1 116 
2 0 5 0 0 0 1 118 
7 0 4 0 0 0 1 118 
3 0 4 0 0 0 1 123 
7 0 8 0 0 0 1 123 
5 0 5 0 0 0 1 123 
3 0 4 0 0 0 1 123 
9 0 6 0 0 0 1 123 
0 0 0 0 0 0 1 148 
0 0 0 0 0 0 6 125 126 127 128 130 134 
9 1 0 0 0 0 2 133 131 
6 4 0 0 0 0 2 132 131 
3 2 0 0 0 0 1 129 
4 4 0 0 0 0 1 129 
9 6 0 0 0 0 1 131 
7 9 0 0 0 0 1 131 
7 5 0 0 0 0 1 135 
2 2 0 0 0 0 1 135 
6 9 0 0 0 0 1 135 
3 8 0 0 0 0 1 135 
0 0 0 0 0 0 1 148 
0 0 0 0 0 0 3 137 138 139 
7 0 1 0 0 0 5 144 143 142 141 140 
5 0 7 0 0 0 4 144 142 141 140 
8 0 7 0 0 0 3 143 141 140 
2 0 4 0 0 0 2 146 145 
7 0 4 0 0 0 2 146 145 
3 0 6 0 0 0 2 146 145 
5 0 7 0 0 0 1 146 
9 0 2 0 0 0 1 145 
6 0 8 0 0 0 1 147 
6 0 4 0 0 0 1 147 
0 0 0 0 0 0 1 148 
0 0 0 0 0 0 4 149 161 173 185 
0 0 0 0 0 0 4 150 151 153 159 
3 0 0 0 1 0 2 158 152 
2 0 0 0 8 0 4 157 156 155 154 
8 0 0 0 4 0 3 156 155 154 
7 0 0 0 3 0 3 157 155 154 
6 0 0 0 5 0 1 160 
1 0 0 0 4 0 1 160 
4 0 0 0 3 0 1 160 
6 0 0 0 8 0 1 160 
5 0 0 0 8 0 1 160 
7 0 0 0 6 0 1 160 
0 0 0 0 0 0 1 197 
0 0 0 0 0 0 6 162 163 164 169 170 171 
5 2 0 0 0 0 3 168 167 166 
8 4 0 0 0 0 3 168 167 166 
10 6 0 0 0 0 2 167 165 
6 5 0 0 0 0 1 166 
7 10 0 0 0 0 1 172 
9 8 0 0 0 0 1 172 
9 3 0 0 0 0 1 172 
10 5 0 0 0 0 1 172 
9 3 0 0 0 0 1 172 
1 4 0 0 0 0 1 172 
0 0 0 0 0 0 1 197 
0 0 0 0 0 0 5 174 175 176 178 183 
1 1 0 0 0 0 3 181 179 177 
3 6 0 0 0 0 2 182 181 
3 5 0 0 0 0 2 180 179 
6 4 0 0 0 0 1 180 
6 6 0 0 0 0 1 179 
1 8 0 0 0 0 1 184 
2 5 0 0 0 0 1 184 
4 7 0 0 0 0 1 184 
3 4 0 0 0 0 1 184 
1 4 0 0 0 0 1 184 
0 0 0 0 0 0 1 197 
0 0 0 0 0 0 6 186 187 188 189 191 195 
10 0 1 0 0 0 3 194 193 190 
7 0 1 0 0 0 2 193 190 
7 0 5 0 0 0 2 193 190 
1 0 5 0 0 0 1 190 
6 0 5 0 0 0 1 192 
2 0 8 0 0 0 1 194 
2 0 7 0 0 0 1 196 
4 0 6 0 0 0 1 196 
8 0 6 0 0 0 1 196 
10 0 6 0 0 0 1 196 
0 0 0 0 0 0 1 197 
0 0 0 0 0 0 4 198 210 222 234 
0 0 0 0 0 0 4 199 200 207 208 
1 0 1 0 0 0 3 206 202 201 
9 0 4 0 0 0 3 205 204 202 
1 0 5 0 0 0 1 203 
9 0 8 0 0 0 1 209 
5 0 6 0 0 0 1 209 
2 0 5 0 0 0 1 209 
6 0 4 0 0 0 1 209 
2 0 6 0 0 0 1 209 
5 0 5 0 0 0 1 209 
10 0 6 0 0 0 1 209 
0 0 0 0 0 0 1 246 
0 0 0 0 0 0 5 211 212 213 214 218 
2 1 0 0 0 0 3 220 217 216 
6 5 0 0 0 0 2 217 215 
4 6 0 0 0 0 2 220 216 
9 6 0 0 0 0 2 220 216 
6 7 0 0 0 0 2 220 219 
4 5 0 0 0 0 1 219 
6 6 0 0 0 0 1 219 
10 5 0 0 0 0 1 219 
1 5 0 0 0 0 1 221 
9 4 0 0 0 0 1 221 
0 0 0 0 0 0 1 246 
0 0 0 0 0 0 2 223 224 
5 0 0 0 1 0 4 232 231 228 225 
2 0 0 0 5 0 3 228 227 226 
8 0 0 0 4 0 2 230 227 
2 0 0 0 3 0 1 229 
5 0 0 0 5 0 1 233 
4 0 0 0 5 0 1 233 
2 0 0 0 9 0 1 233 
6 0 0 0 8 0 1 233 
8 0 0 0 4 0 1 233 
9 0 0 0 6 0 1 233 
0 0 0 0 0 0 1 246 
0 0 0 0 0 0 6 235 237 239 242 243 244 
3 0 0 1 0 0 1 236 
8 0 0 6 0 0 2 241 240 
8 0 0 10 0 0 1 238 
5 0 0 4 0 0 1 240 
9 0 0 8 0 0 1 240 
4 0 0 5 0 0 1 245 
6 0 0 3 0 0 1 245 
2 0 0 4 0 0 1 245 
1 0 0 4 0 0 1 245 
4 0 0 5 0 0 1 245 
0 0 0 0 0 0 1 246 
0 0 0 0 0 0 0 
